LAMMPS (30 Jul 2021)
units lj
atom_style bond

boundary p p p
timestep 0.001

read_data bond.atoms
Reading data file ...
  orthogonal box = (0.0000000 0.0000000 0.0000000) to (30.800000 15.400000 15.400000)
  1 by 1 by 1 MPI processor grid
  reading atoms ...
  4000 atoms
  reading velocities ...
  4000 velocities
  scanning bonds ...
  1 = max bonds/atom
  reading bonds ...
  344 bonds
Finding 1-2 1-3 1-4 neighbors ...
  special bond factors lj:    0        0        0       
  special bond factors coul:  0        0        0       
     1 = max # of 1-2 neighbors
     0 = max # of 1-3 neighbors
     0 = max # of 1-4 neighbors
     1 = max # of special neighbors
  special bonds CPU = 0.001 seconds
  read_data CPU = 0.010 seconds

mass 1 1.0
mass 2 1.0

pair_style lj/cut 3.0
pair_coeff 1 1 1.0 1.0 3.0
pair_coeff 1 2 1.0 1.3 1.2
pair_coeff 2 2 1.0 1.0 3.0

bond_style fene
bond_coeff 1 30.0 1.5 1.5 1.0

neighbor 0.3 bin
neigh_modify every 20 delay 0 check no

fix 1 all nvt temp 0.7 0.7 0.1

dump id all atom 100 bond.lammpstrj

thermo 500
run 300000
WARNING: Use special bonds = 0,1,1 with bond style fene (../bond_fene.cpp:181)
Neighbor list info ...
  update every 20 steps, delay 0 steps, check no
  max neighbors/atom: 2000, page size: 100000
  master list distance cutoff = 3.3
  ghost atom cutoff = 3.3
  binsize = 1.65, bins = 19 10 10
  1 neighbor lists, perpetual/occasional/extra = 1 0 0
  (1) pair lj/cut, perpetual
      attributes: half, newton on
      pair build: half/bin/newton
      stencil: half/bin/3d
      bin: standard
Per MPI rank memory allocation (min/avg/max) = 5.919 | 5.919 | 5.919 Mbytes
Step Temp E_pair E_mol TotEng Press 
       0            0    13.428072    2.1782553    15.606327    54.833798 
     500    1.0107552   -4.4989455     1.851011   -1.1321807    4.9981353 
    1000   0.72438009   -5.1169553    1.8334366   -2.1972202   0.93637306 
    1500   0.70873116   -4.9667877    1.8359969   -2.0679598  -0.16735698 
    2000   0.71069166   -4.7704458    1.8338628   -1.8708121  -0.56566786 
    2500   0.70654573   -4.5868027    1.8361837   -1.6910653  -0.56850516 
    3000   0.71032037   -4.4978672    1.8363822   -1.5962708  -0.50287481 
    3500   0.70327617   -4.4518424    1.8363911   -1.5608007   -0.3566417 
    4000   0.71317889   -4.4578575    1.8380279   -1.5503287  -0.30606324 
    4500   0.70520508   -4.4388718    1.8363915   -1.5449372   -0.1240544 
    5000   0.70678976    -4.441566    1.8356329   -1.5460135  -0.09811992 
    5500   0.70116136   -4.4804706    1.8368652   -1.5921263 -0.038757543 
    6000   0.70438623   -4.5301962    1.8417935   -1.6320875  0.043960155 
    6500   0.69375505   -4.5968092    1.8389419   -1.7174949   0.19512554 
    7000   0.69395819   -4.6344431    1.8414457   -1.7523204    0.5305341 
    7500   0.68276643   -4.6618903    1.8466888   -1.7913079    1.0183339 
    8000    0.6942122   -4.7274349    1.8432324   -1.8431445    1.1940252 
    8500   0.69826061   -4.7453569    1.8469675   -1.8512603    1.0284206 
    9000   0.69739917   -4.7374311    1.8470726   -1.8445213   0.70271906 
    9500   0.69283797   -4.6582674    1.8448267   -1.7744436   0.53586749 
   10000   0.70370213    -4.595069    1.8493562   -1.6904235   0.31091254 
   10500   0.70761292   -4.5369798    1.8540768    -1.621749  0.093667543 
   11000   0.71621426   -4.4343915    1.8522476    -1.508091 -0.032159221 
   11500   0.71739346   -4.3569321    1.8530534   -1.4280575 -0.092040428 
   12000   0.71199585   -4.2982256    1.8571388     -1.37336  -0.19544261 
   12500   0.69756514   -4.2394705     1.855481   -1.3379033  -0.23404566 
   13000   0.70893006    -4.181502    1.8534251   -1.2649476   -0.2285334 
   13500   0.70124468   -4.1442755    1.8504363   -1.2422351  -0.24159232 
   14000   0.69174849   -4.0981938    1.8548506   -1.2059798  -0.18538697 
   14500   0.70314542   -4.0947564    1.8550993   -1.1852026  -0.23033479 
   15000   0.70360623   -4.0996726    1.8486233   -1.1959039  -0.24590795 
   15500   0.69764143   -4.1034096    1.8492929   -1.2079162  -0.24141611 
   16000   0.69255492   -4.0879784    1.8496916   -1.1997141  -0.14155234 
   16500    0.6968821   -4.1034023    1.8483468   -1.2099936  -0.20896031 
   17000   0.69650017    -4.125279    1.8514423   -1.2293476  -0.22983213 
   17500   0.70389198   -4.1394306    1.8484769   -1.2353796  -0.16577659 
   18000    0.6949214   -4.1985434    1.8516253   -1.3047966  -0.27237048 
   18500   0.69746566   -4.1872354    1.8523553   -1.2889432  -0.10517527 
   19000     0.694551    -4.195055    1.8530869   -1.3004021  -0.12957034 
   19500   0.70332625    -4.217769    1.8524899   -1.3105535  -0.15540914 
   20000   0.72875114   -4.2642955     1.853316   -1.3181261    -0.102565 
   20500   0.70449812   -4.2908063     1.851099   -1.3832243 -0.020769792 
   21000   0.69392591   -4.3408134    1.8543558   -1.4458289   -0.1798462 
   21500   0.69487473   -4.3554479     1.849939   -1.4634573 -0.091299553 
   22000    0.6990141   -4.3954359    1.8458047   -1.5013722  -0.13454524 
   22500   0.71346407    -4.416817    1.8503071   -1.4965813 -0.086993046 
   23000   0.70188488   -4.4513295    1.8487892   -1.5499762 -0.032017595 
   23500   0.67820676   -4.4693518    1.8504206   -1.6018754 -0.020979035 
   24000   0.69869354   -4.4799414    1.8489459   -1.5832172 -0.024200227 
   24500   0.69462274   -4.5008669     1.846236   -1.6129573 -0.0088643243 
   25000   0.70507795   -4.5408328    1.8463095   -1.6371708 -0.091338386 
   25500   0.69429981   -4.5227041     1.848497   -1.6330177  0.052065744 
   26000   0.70752459   -4.5567125    1.8471283   -1.6485626  0.047138175 
   26500   0.70565802   -4.5772593    1.8507843   -1.6682526  0.034234372 
   27000    0.7158865   -4.6001854    1.8492496   -1.6773745  0.019663373 
   27500   0.72397395   -4.5923544    1.8500028   -1.6566622  0.098511672 
   28000   0.71591891   -4.6031357    1.8488585   -1.6806673 -0.016868375 
   28500     0.701493   -4.5948753    1.8515345   -1.6913644   0.10951103 
   29000   0.69965751   -4.6188001    1.8509064   -1.7186698  0.057461457 
   29500   0.69890585   -4.6127188    1.8482148   -1.7164073   0.04827574 
   30000   0.70424562   -4.6067109    1.8509743   -1.6996322    0.0622896 
   30500   0.69556222   -4.5813878    1.8515444   -1.6867609  0.064899981 
   31000   0.71511921   -4.6016554    1.8515702   -1.6776745   0.02100341 
   31500   0.70031584   -4.5807496    1.8476092   -1.6829293  0.028080055 
   32000   0.70751511   -4.5762044    1.8439501   -1.6712469  0.036888477 
   32500   0.71051829   -4.5716113    1.8482549   -1.6578455  0.014425818 
   33000   0.71293237    -4.576128    1.8477348    -1.659262 -0.0065742208 
   33500   0.70502256   -4.5924472    1.8488708    -1.686307 -0.088201452 
   34000   0.69539813   -4.5602578    1.8512681   -1.6661533 0.0099621609 
   34500   0.68687754   -4.5704688     1.849488    -1.690922 -0.036954785 
   35000    0.6890421   -4.5800668    1.8509065   -1.6958555 -0.032046685 
   35500   0.70547732   -4.5771567    1.8504188   -1.6687865 -0.026190777 
   36000   0.70211527   -4.5536367    1.8516351    -1.649092  0.024132503 
   36500   0.69558934   -4.5747073    1.8497957   -1.6817884 -0.096664914 
   37000   0.70061369   -4.5761619    1.8464319   -1.6790722 0.0022420161 
   37500   0.70108485   -4.5886931    1.8504974   -1.6868314 -0.0073688977 
   38000   0.68872846   -4.5844694     1.849252   -1.7023829 -0.084680897 
   38500   0.71053493   -4.5586595    1.8497909   -1.6433326 -0.028314561 
   39000   0.71194389   -4.5785092    1.8482357   -1.6626246 -0.024867192 
   39500   0.69263536   -4.5943462     1.848765    -1.706888 -0.050531082 
   40000   0.69303936   -4.6039198     1.848757   -1.7158636 -0.014805298 
   40500   0.68925198   -4.6181587    1.8481398   -1.7363994  -0.10243211 
   41000   0.70694055   -4.6080125    1.8525094   -1.6953573 0.0041943592 
   41500    0.7110702   -4.6051674    1.8492076   -1.6896211 -0.058739795 
   42000   0.69605808   -4.6346429    1.8521675   -1.7386493  -0.12296976 
   42500   0.69331984   -4.6098701     1.850772   -1.7193783 -0.0064450101 
   43000    0.6943795   -4.6502374    1.8471745    -1.761754  0.030801507 
   43500   0.69042993   -4.6444004    1.8505063   -1.7585081 0.0029857682 
   44000   0.70009596   -4.6456404     1.854713    -1.741046 0.0071849688 
   44500   0.71721607   -4.6377697    1.8513709   -1.7108437 -0.0074671194 
   45000   0.71300643   -4.6743152    1.8498256   -1.7552473 -0.094258509 
   45500   0.70699581   -4.6403535    1.8499481   -1.7301768  0.031267109 
   46000   0.72432732    -4.642877    1.8516364   -1.7050212   0.03684423 
   46500   0.70549734   -4.6425417    1.8529357   -1.7316245 -0.032050393 
   47000   0.70200116   -4.6104961    1.8529864   -1.7047713   0.12252291 
   47500   0.70848033   -4.6247001    1.8489208   -1.7133246   0.09333523 
   48000   0.70003129   -4.6271856    1.8538348   -1.7235663  -0.03752945 
   48500   0.70612161   -4.6480495    1.8539376   -1.7351942  -0.10121426 
   49000   0.70388512    -4.638151    1.8538472     -1.72874  -0.01268826 
   49500   0.69607802   -4.6373405    1.8504354   -1.7430491 -0.036250048 
   50000   0.70660961   -4.6420961     1.852256   -1.7301907 0.0034761379 
   50500   0.69775106   -4.6313248    1.8538277   -1.7311322 -0.00072401341 
   51000   0.69411421   -4.6511554    1.8504968   -1.7597476  0.013941161 
   51500   0.69812213   -4.6576886     1.852198   -1.7585691  0.058293622 
   52000   0.68907477   -4.6764331    1.8532736   -1.7898058 -0.085043644 
   52500   0.69806694    -4.617842    1.8506921   -1.7203112   0.11059588 
   53000   0.69052612   -4.6491137    1.8565348   -1.7570486  -0.08093409 
   53500   0.71844697   -4.6534834    1.8562854    -1.719797  -0.10477786 
   54000   0.69889432   -4.6271586    1.8508523    -1.728227  0.076602518 
   54500   0.69993417   -4.6475119    1.8545023   -1.7433709  -0.12695002 
   55000   0.69664185   -4.6304583     1.852149   -1.7336078  0.031970191 
   55500   0.69560272   -4.6256316     1.854279   -1.7282093 0.00053483404 
   56000   0.70428944   -4.6561488    1.8542569   -1.7457218  -0.12932077 
   56500    0.7026499   -4.6268626    1.8522555   -1.7208958 -0.0065106448 
   57000   0.71187523   -4.6150684    1.8497489   -1.6977736  0.031655324 
   57500   0.71200811   -4.6171971    1.8559577   -1.6934942  0.032340844 
   58000   0.70303924   -4.6811024    1.8508616   -1.7759456  -0.14174177 
   58500    0.7073178    -4.650194    1.8502519   -1.7392306 -0.047078948 
   59000   0.69600008   -4.6329585    1.8528891   -1.7363303  0.052048168 
   59500   0.71079077   -4.6446385    1.8554702   -1.7232487  0.066817422 
   60000   0.69998987   -4.6408463    1.8540684   -1.7370555  -0.10181269 
   60500   0.71676506   -4.6455961      1.84913   -1.7215873 -0.013092952 
   61000    0.6975444   -4.6581064    1.8544028   -1.7576486 -0.037378017 
   61500   0.69246231   -4.6641217    1.8530901   -1.7725978 0.0039699352 
   62000   0.69883582   -4.6684541    1.8534963   -1.7669661 -0.066007797 
   62500   0.70679494    -4.687696    1.8490362   -1.7787324 -0.093971713 
   63000   0.69989809     -4.67155    1.8493278   -1.7726376 -0.017370876 
   63500   0.70846748   -4.6807454    1.8501104   -1.7681994 -0.070069716 
   64000   0.70936482   -4.6642741    1.8518252   -1.7486676  -0.06235986 
   64500   0.69231974   -4.6561637    1.8502809   -1.7676628   0.05027436 
   65000   0.70274848   -4.6773174    1.8496082     -1.77385 -0.031915749 
   65500   0.67862189   -4.6882083    1.8516409    -1.818889 -0.053087296 
   66000   0.68789962   -4.7077343    1.8492574   -1.8268855 -0.015773633 
   66500   0.70421307   -4.6898865    1.8539011   -1.7799299 -0.012204921 
   67000   0.69211871   -4.6607527     1.850727   -1.7721072  0.085755546 
   67500   0.69892993   -4.7189627    1.8481297   -1.8227002 -0.0082204687 
   68000   0.69488233   -4.7025386    1.8516337    -1.808842 -0.019172324 
   68500   0.69590833   -4.7042303    1.8501761   -1.8104527 -0.00055132762 
   69000    0.6924259   -4.6994869    1.8492579   -1.8118497 -0.094489197 
   69500    0.6921037    -4.692885    1.8503887   -1.8046004 -0.036953212 
   70000   0.70175506   -4.6815201    1.8535553   -1.7755954 -0.019090641 
   70500    0.7002081   -4.6635812    1.8518421   -1.7616895  0.042432558 
   71000    0.6996745    -4.677236    1.8506281   -1.7773585 -0.0071695557 
   71500   0.70912868   -4.6765378    1.8476439   -1.7654669 -0.00079353253 
   72000   0.72120139   -4.6701623    1.8478773   -1.7407533  0.039546437 
   72500   0.68775178   -4.6938367    1.8529664   -1.8095005 -0.038697766 
   73000   0.70327565   -4.6897213    1.8521012   -1.7829703 -0.068242401 
   73500   0.69463582   -4.6983506    1.8478566   -1.8088008 -0.068818161 
   74000   0.69998089    -4.676006    1.8534539   -1.7728432 -0.0015219799 
   74500    0.7068645   -4.6768812    1.8497586   -1.7670908 -0.034210705 
   75000   0.70336101   -4.6802396    1.8501867   -1.7752752 -0.061328804 
   75500   0.70747587   -4.6859381    1.8543975   -1.7705922  0.026346074 
   76000   0.71203629   -4.6746787    1.8491135   -1.7577778   0.04264236 
   76500   0.70464607   -4.6820817    1.8496947   -1.7756821 -0.064862047 
   77000   0.69832102   -4.6810817    1.8503838   -1.7834783 -0.0066832669 
   77500   0.69748192   -4.6709224    1.8479227   -1.7770384  0.024611031 
   78000   0.70383951   -4.6707437    1.8513855   -1.7638629  0.061932831 
   78500   0.70055821   -4.6816414    1.8497448   -1.7813221 -0.010213746 
   79000   0.71219041   -4.6985836    1.8485511    -1.782014 0.0026171796 
   79500   0.71487854   -4.6905394    1.8525932   -1.7658965  0.010326695 
   80000   0.67819643   -4.7122918    1.8544253   -1.8408262 -0.034153442 
   80500   0.69271301   -4.7285411    1.8506807   -1.8390506  0.015563291 
   81000   0.69839049   -4.7464891    1.8507832    -1.848382 -0.0038009563 
   81500   0.70055841   -4.7418257    1.8507896   -1.8404612 -0.060072215 
   82000   0.69793282   -4.7171439    1.8466963   -1.8238101  0.043265795 
   82500   0.70521116    -4.711808    1.8493148   -1.8049409 0.0075667323 
   83000   0.69870078   -4.6887391    1.8477709   -1.7931791  0.090497066 
   83500    0.6981052   -4.7009883    1.8530511   -1.8010412  0.046244683 
   84000   0.70216853       -4.726    1.8502492   -1.8227613 -0.042455263 
   84500   0.69579973   -4.7263108    1.8501462   -1.8327259   -0.0283757 
   85000   0.69253859   -4.6934821    1.8519478   -1.8029861 -0.0081990567 
   85500   0.70584683   -4.6952238    1.8532569   -1.7834613 -0.017321728 
   86000   0.69905899   -4.6995435    1.8513558   -1.7998614 -0.076423815 
   86500   0.69705185   -4.6936781    1.8495863   -1.7987754 -0.068045719 
   87000   0.71804306   -4.6944868    1.8513299   -1.7663616 -0.098397579 
   87500   0.70095651   -4.6783001    1.8501505   -1.7769777  0.044829558 
   88000   0.68315097   -4.6905802    1.8472905   -1.8188194 -0.089363429 
   88500   0.69345137   -4.6969128    1.8484789   -1.8085169 -0.065502852 
   89000   0.69358238   -4.7159991    1.8546455   -1.8212401 -0.019873992 
   89500   0.70400417   -4.7200081    1.8508711   -1.8133948 0.0065579231 
   90000   0.69729507   -4.7057086    1.8482988   -1.8117287  0.056952472 
   90500    0.6762608   -4.7178375    1.8479527   -1.8557472 0.0074203515 
   91000   0.69203356   -4.7343175    1.8534412   -1.8430855  0.040460923 
   91500   0.69078084   -4.7436164    1.8503601   -1.8573441 0.0052872119 
   92000    0.6959698   -4.7495535    1.8521584   -1.8537014 -0.048692016 
   92500   0.70129392   -4.7383963    1.8521418   -1.8345766  0.024499228 
   93000   0.68997522   -4.7283388     1.851236   -1.8423987  0.027962557 
   93500   0.69722937   -4.7252209    1.8478825   -1.8317558  0.012656513 
   94000   0.68910127    -4.725821    1.8534695   -1.8389581 -0.060999176 
   94500   0.69673423   -4.7074072    1.8536331    -1.808934  0.012502145 
   95000   0.71222815   -4.7364645    1.8499141   -1.8184752 -0.060284479 
   95500   0.69428007   -4.7230438    1.8523037   -1.8295804 -0.078761972 
   96000   0.70284523    -4.684347    1.8510433   -1.7792994 -0.026293999 
   96500    0.7057308   -4.6909928    1.8497436   -1.7829176  -0.12402684 
   97000   0.71703757   -4.6948734    1.8516463   -1.7679396 -0.069467115 
   97500   0.69082346   -4.6711071     1.852233   -1.7828979  0.084678438 
   98000   0.69038021   -4.6873823    1.8499878   -1.8020832 0.0089691188 
   98500   0.69664652   -4.6792531    1.8524297   -1.7821149  0.029324263 
   99000   0.70146053   -4.6855551    1.8557486   -1.7778788   -0.0130677 
   99500   0.71052411   -4.6810863    1.8513143   -1.7642523  -0.15467872 
  100000    0.7010491   -4.6741099    1.8507346   -1.7720645 -0.078535957 
  100500   0.69220215   -4.6912296    1.8534507   -1.7997352 -0.038237767 
  101000   0.68559058   -4.6880371    1.8539952   -1.8059131 -0.049459154 
  101500    0.7001432   -4.6847906    1.8531577   -1.7816806 -0.018124063 
  102000   0.70213384     -4.69492    1.8528291   -1.7891535   0.02151264 
  102500   0.69498276   -4.7092818    1.8546989   -1.8123693 -0.062868459 
  103000   0.69622963   -4.7119375    1.8507711   -1.8170831   0.04459015 
  103500   0.71043764   -4.7332317    1.8496334   -1.8182082   0.01639508 
  104000    0.6985763   -4.7489922    1.8559889   -1.8454008 -0.060048064 
  104500    0.7014445   -4.7595998    1.8529162   -1.8547798 -0.059394314 
  105000   0.69331782   -4.7292896    1.8527445   -1.8368283  0.044406144 
  105500   0.70270846   -4.7611784     1.851619   -1.8557602 -0.042775561 
  106000     0.704815   -4.7617662    1.8497718   -1.8550363  0.040198707 
  106500   0.70283505   -4.7776288    1.8485854   -1.8750544  0.082378393 
  107000   0.70592087   -4.7667922    1.8509864   -1.8571893  0.030076614 
  107500   0.69957596   -4.7706511    1.8505432   -1.8710063 -0.092342815 
  108000   0.71641207   -4.7859838    1.8506031   -1.8610312  -0.12804375 
  108500   0.69472134   -4.7461605    1.8541162   -1.8502229 -0.021179506 
  109000   0.68690935     -4.73238    1.8500239   -1.8522496 -0.060966657 
  109500   0.69919704   -4.7330416    1.8517592   -1.8327491 -0.028224068 
  110000   0.69269454   -4.7269287    1.8476914   -1.8404552 -0.037383519 
  110500   0.71614144   -4.7169036    1.8519598   -1.7910002 -0.023367988 
  111000   0.71016346   -4.7355476    1.8505113   -1.8200574 -0.066340604 
  111500   0.70562427   -4.7363708    1.8473944   -1.8308047 -0.032977094 
  112000   0.69168808   -4.7233865    1.8473383   -1.8387754 -0.012585022 
  112500   0.69409099   -4.7118882    1.8457686   -1.8252434  0.039508416 
  113000   0.67258871    -4.734417    1.8492432    -1.876543 -0.0085826239 
  113500   0.69319282   -4.7365852    1.8501354   -1.8469205 -0.030141902 
  114000   0.69207465     -4.73626     1.849862   -1.8485455 0.0034589006 
  114500   0.70333604   -4.7433428    1.8480445   -1.8405579 0.00045546064 
  115000   0.69943563   -4.7306044    1.8489726   -1.8327406 -0.013900632 
  115500   0.70153196   -4.7150472    1.8518295   -1.8111829  0.070277372 
  116000   0.70804978   -4.7468184     1.849113   -1.8358962 -0.061227912 
  116500   0.69882309   -4.7366994    1.8489419   -1.8397849 -0.052085363 
  117000   0.69669595   -4.7249851    1.8493833   -1.8308191  0.061503993 
  117500   0.69319572   -4.7130333    1.8521864   -1.8213132  0.014448128 
  118000     0.710588   -4.7446822    1.8483667      -1.8307 -0.032063072 
  118500   0.69398377   -4.7373303    1.8532551   -1.8433597 -0.051183131 
  119000   0.69912448   -4.7346437    1.8515682    -1.834651 -0.050546189 
  119500   0.70238197   -4.7314624    1.8503572   -1.8277957  0.027696129 
  120000   0.70886247   -4.7269973    1.8512868   -1.8126826  -0.06677234 
  120500    0.7078948   -4.7297104    1.8490281   -1.8191055  -0.09101976 
  121000   0.69711033   -4.7371955    1.8496138   -1.8421776  -0.10248897 
  121500   0.70695269   -4.7248084    1.8496899   -1.8149546  0.023235581 
  122000   0.68440456   -4.7196714    1.8490111   -1.8443101 -0.041580054 
  122500   0.69631617   -4.7213075    1.8545591   -1.8225352 -0.0046139243 
  123000   0.70116572   -4.7180407    1.8541881   -1.8123669 -0.026621789 
  123500   0.69625308    -4.707912    1.8522978   -1.8114957 -0.0014384302 
  124000   0.70675011   -4.7178225    1.8540593   -1.8039031 -0.079759448 
  124500   0.69490634   -4.7395118    1.8482982   -1.8491147  -0.04669596 
  125000   0.69211586   -4.7406414     1.848529   -1.8541982  -0.11630189 
  125500   0.69113311   -4.7073614    1.8506222   -1.8202988 -0.049147385 
  126000   0.70052836   -4.7045284    1.8476154   -1.8063831 -0.023686784 
  126500   0.69841626   -4.6993255    1.8511994   -1.8007636  0.026878502 
  127000   0.71283702   -4.7354593    1.8536042   -1.8128669 -0.024637341 
  127500   0.70232118   -4.7412538    1.8495077   -1.8385277 -0.051451952 
  128000   0.68600681   -4.7421878    1.8493731   -1.8640617 -0.054101121 
  128500   0.69076828   -4.7515179    1.8512984   -1.8643261 -0.048482421 
  129000   0.71559107   -4.7320005     1.856003   -1.8028793 -0.036202432 
  129500   0.68105675   -4.7205344    1.8512301   -1.8479746   0.03453495 
  130000   0.70621498   -4.7646201    1.8486602   -1.8569023 -0.083063744 
  130500   0.70938993     -4.75476    1.8523633   -1.8385779  0.013593035 
  131000   0.70785907   -4.7196833    1.8559444   -1.8022158  0.073766644 
  131500   0.69004947   -4.7196594    1.8520927   -1.8327512  0.015474781 
  132000   0.69585173   -4.7217869     1.851077   -1.8271933 -0.015775569 
  132500   0.69549782   -4.7203939    1.8496443   -1.8277637 -0.0031655768 
  133000   0.68244228   -4.7470461    1.8485327   -1.8751058 -0.074806802 
  133500   0.68700422   -4.7328098    1.8478181    -1.854743 -0.064189033 
  134000   0.70897492   -4.7310115    1.8499678   -1.8178472 -0.013205806 
  134500   0.71778171   -4.7492043    1.8468485   -1.8259525   0.01456026 
  135000   0.69255083   -4.7518253     1.848118   -1.8651408 -0.043009578 
  135500   0.69438803   -4.7479893    1.8473363   -1.8593314  0.051924824 
  136000   0.70291089   -4.7611711    1.8490276   -1.8580408  0.061770457 
  136500   0.69891983   -4.7485218    1.8491999   -1.8512042  0.017808655 
  137000   0.72324433   -4.7519697     1.849852   -1.8175224  0.014495001 
  137500   0.71489164   -4.7599122    1.8479392   -1.8399036 0.00053093411 
  138000   0.69841076   -4.7375152     1.848425    -1.841736  0.099307043 
  138500   0.71202242   -4.7742628    1.8516818   -1.8548144 -0.0011051462 
  139000   0.69545769   -4.7523283    1.8512335   -1.8581691  0.031253164 
  139500   0.70467951   -4.7737082    1.8514925   -1.8654606  0.045474715 
  140000   0.69397726   -4.7595052    1.8487165   -1.8700831 0.0012743173 
  140500   0.69364038   -4.7291601    1.8507323   -1.8382274  0.077455559 
  141000   0.69654988   -4.7244628    1.8498566   -1.8300426  0.018840205 
  141500   0.69700361   -4.7479584    1.8467134   -1.8560009 -0.060715437 
  142000   0.69337338   -4.7486378    1.8505197    -1.858318  -0.11142482 
  142500   0.69225756   -4.7458217    1.8465219   -1.8611731 -0.064269335 
  143000   0.70008649   -4.7116792    1.8490283   -1.8127837  0.066132458 
  143500   0.70806085   -4.7055938    1.8511678   -1.7926003  0.040754279 
  144000   0.71029594   -4.7230461    1.8481164   -1.8097522 -0.033863263 
  144500     0.702218   -4.7193979    1.8514527   -1.8148816 -0.030046399 
  145000   0.71981912   -4.7258028    1.8487752   -1.7975689 0.0017890845 
  145500   0.68618811    -4.747825    1.8527225   -1.8660777 -0.030418583 
  146000   0.70300478   -4.7362267    1.8493192   -1.8326639 -0.010406444 
  146500   0.70032472   -4.7205841    1.8479624   -1.8223972  0.072415236 
  147000    0.7210907   -4.7444594     1.851424   -1.8116697 0.0033126993 
  147500   0.70092796   -4.7349457    1.8517632   -1.8320534 -0.0060775532 
  148000    0.7153718   -4.7678212    1.8467552   -1.8482766 -0.0017988499 
  148500   0.70360841   -4.7473911    1.8527821   -1.8394603  0.039729267 
  149000   0.71203274   -4.7346016    1.8492935   -1.8175261   0.12721936 
  149500   0.70218885   -4.7465859    1.8528147   -1.8407513   0.05571476 
  150000    0.7006853   -4.7566529    1.8479311   -1.8579566 -0.031690428 
  150500    0.7008957   -4.7507886    1.8506831   -1.8490248 -0.057950483 
  151000   0.68680544   -4.7553481    1.8540269   -1.8713706 -0.070235568 
  151500   0.68595075    -4.723762    1.8526253   -1.8424678 -0.086683684 
  152000   0.70832384   -4.7361449    1.8497216   -1.8242033 -0.029798551 
  152500   0.70279758   -4.7079138    1.8505317   -1.8034493 -0.001501614 
  153000   0.69518276   -4.7117285    1.8531164   -1.8160986 -0.020812327 
  153500   0.70689518   -4.7226357    1.8520918   -1.8104662 -0.067679808 
  154000   0.70222628   -4.7334391    1.8500922   -1.8302709  -0.13705937 
  154500   0.68904934    -4.719599    1.8483467   -1.8379368 -0.011827826 
  155000   0.69351412   -4.7201279    1.8524123   -1.8277045 -0.0077427934 
  155500   0.69059341   -4.7231413    1.8503316   -1.8371785 0.0079059878 
  156000   0.70986556   -4.7461334    1.8544754   -1.8271258 -0.098601684 
  156500   0.69556875   -4.7257558    1.8491431   -1.8335203  0.035788577 
  157000   0.68374579   -4.7561206    1.8520348   -1.8787235 -0.028092424 
  157500   0.70162062   -4.7595546    1.8502036   -1.8571832 -0.018565456 
  158000   0.69760815   -4.7459407    1.8503668   -1.8494233  0.038699229 
  158500   0.68805522   -4.7713236    1.8515401   -1.8879587 -0.051033796 
  159000   0.69120935   -4.7645605    1.8478117    -1.880194 0.0038253281 
  159500   0.68576954   -4.7694099     1.849945   -1.8910678 -0.0052476632 
  160000   0.69909232   -4.7578267    1.8552601   -1.8541902 -0.017991511 
  160500   0.68689341   -4.7732831    1.8489204   -1.8942802 -0.0023790602 
  161000   0.69817417   -4.7656813     1.847082   -1.8715999 -0.0011517866 
  161500   0.69607798   -4.7714659    1.8530834   -1.8745265 -0.033998622 
  162000   0.69536433   -4.7739637    1.8546194   -1.8765585 -0.023423492 
  162500   0.70521528   -4.7630312    1.8501567    -1.855316 -0.032891207 
  163000   0.70487373    -4.761621    1.8510136   -1.8535611 0.0065667046 
  163500    0.7075668   -4.7463031    1.8531874   -1.8320308 -0.015853195 
  164000   0.69294856   -4.7387119    1.8515015   -1.8480475  0.070106358 
  164500   0.69597468   -4.7402069    1.8505035   -1.8460024  0.042999961 
  165000   0.68712821   -4.7322439    1.8500468   -1.8517624 -0.015080485 
  165500   0.71028851   -4.7459308    1.8556494    -1.825115 -0.041036404 
  166000   0.70782612   -4.7481604    1.8532683   -1.8334183 -0.062554097 
  166500   0.70174229   -4.7247275    1.8532485   -1.8191287 -0.0015938256 
  167000   0.71318036   -4.7414301    1.8489093   -1.8230177  -0.02609813 
  167500    0.7122143   -4.7033008    1.8522255    -1.783021  0.074474118 
  168000   0.69716005    -4.726476      1.85274   -1.8282574 -0.021207128 
  168500   0.70189438   -4.7160218     1.850844   -1.8125994   0.06511037 
  169000   0.70057452   -4.7312212    1.8514806   -1.8291415 -0.075748748 
  169500   0.70970408   -4.7315375    1.8507632   -1.8164844 0.00031682147 
  170000   0.70860428   -4.7553279    1.8486136   -1.8440736  -0.10055729 
  170500   0.70616972   -4.7574441    1.8540055   -1.8444488  -0.02344012 
  171000    0.6820236   -4.7487828    1.8508031      -1.8752  0.026371093 
  171500    0.6913032   -4.7621297    1.8491378   -1.8762964 -0.052046061 
  172000   0.68404633   -4.7519616    1.8470683   -1.8790803  0.034877987 
  172500   0.68396706   -4.7389739    1.8509521   -1.8623278  0.010311744 
  173000   0.70038781   -4.7465178    1.8515534   -1.8446453  0.041891906 
  173500   0.69759469   -4.7427457    1.8523728   -1.8442425 0.0081115394 
  174000   0.70192545   -4.7397122    1.8534162   -1.8336711 -0.022414554 
  174500   0.68518764   -4.7442394    1.8484369    -1.868278  0.038935772 
  175000   0.70033676    -4.767513    1.8522928   -1.8649777 -0.077280369 
  175500   0.69464815   -4.7620383    1.8535684   -1.8667582  0.045601708 
  176000   0.70452863   -4.7516106    1.8503317   -1.8447502 -0.013250083 
  176500   0.69332949   -4.7423482    1.8547915   -1.8478225  0.022220515 
  177000   0.69967854   -4.7661935    1.8542489   -1.8626892  0.026801907 
  177500   0.69281187   -4.7446502    1.8506279   -1.8550643  0.079649275 
  178000   0.69592502   -4.7586086    1.8486874   -1.8662947 -0.052703017 
  178500   0.68767258   -4.7274185    1.8482241   -1.8479435 -0.025856452 
  179000   0.69131673   -4.7219742    1.8492767   -1.8359817 -0.016210402 
  179500   0.70439891   -4.7391762    1.8520273   -1.8308147    -0.115432 
  180000   0.72255075   -4.7293707    1.8459216   -1.7998939 -0.044177853 
  180500   0.68234617   -4.7279408    1.8492757   -1.8554018 -0.029540901 
  181000   0.68846434   -4.7244134    1.8524512   -1.8395239 0.0028297652 
  181500   0.71318096   -4.7263703    1.8469905   -1.8098758   0.06541225 
  182000   0.69952739   -4.7304288     1.848196   -1.8332041 -0.037216987 
  182500   0.69866749   -4.7229858    1.8502206    -1.825026 0.0011312846 
  183000   0.70168426   -4.7333349    1.8502021   -1.8308695 -0.073608773 
  183500   0.70094156   -4.7244288    1.8500367   -1.8232426   -0.0334008 
  184000   0.71333988   -4.7361808    1.8506215   -1.8158169  0.004733007 
  184500   0.69208531   -4.7308933    1.8514379   -1.8415869 -0.014749926 
  185000   0.70133844   -4.7271544    1.8507844   -1.8246254  0.020503907 
  185500   0.71044656   -4.7551929     1.849698   -1.8400915 -0.036296496 
  186000   0.70587665   -4.7510658     1.846239   -1.8462766 -0.037251743 
  186500     0.702459   -4.7534561    1.8500208   -1.8500103 -0.044310472 
  187000   0.70106756   -4.7391987     1.850314   -1.8375462  0.053022419 
  187500   0.70638101   -4.7709379    1.8488702   -1.8627611  0.028415512 
  188000   0.69974991   -4.7663476    1.8518691    -1.865116 -0.083176069 
  188500   0.67999475   -4.7697756    1.8521409   -1.8978975 -0.048040317 
  189000   0.68666673   -4.7537658    1.8501141   -1.8739091  0.068927572 
  189500   0.69570761     -4.77248    1.8510981   -1.8780814 -0.023671608 
  190000   0.69408617   -4.7588906    1.8477432   -1.8702785 0.0021107473 
  190500   0.69587022   -4.7467414    1.8496363   -1.8535607 -0.0042954878 
  191000     0.685239   -4.7334032    1.8486767    -1.857125  0.018788294 
  191500   0.68685727   -4.7391421     1.851949   -1.8571647 -0.011716023 
  192000   0.70690797   -4.7378482    1.8512548   -1.8264966 -0.016715632 
  192500   0.69233841   -4.7565684    1.8487214   -1.8695991 -0.034828838 
  193000   0.70029546   -4.7381415    1.8505195   -1.8374414  0.025368616 
  193500   0.70344615   -4.7446491    1.8480009   -1.8417428  0.036821202 
  194000    0.7040033   -4.7510117    1.8483855   -1.8468852 -0.072321376 
  194500   0.70252861   -4.7603271    1.8510162   -1.8557814 -0.044028912 
  195000   0.68244791   -4.7791998    1.8484304   -1.9073534 0.0069401402 
  195500   0.70809178   -4.7819617    1.8480702   -1.8720193 -0.036418906 
  196000   0.71061478   -4.7687668    1.8498885   -1.8532226  0.034271281 
  196500   0.70894044   -4.7621136    1.8494309   -1.8495379  0.093425806 
  197000   0.68609651   -4.7589376    1.8520935   -1.8779566 0.0089568949 
  197500   0.68188832    -4.779988    1.8493099   -1.9081014 -0.0020084424 
  198000     0.685539   -4.7598515    1.8496821    -1.882118  0.022726436 
  198500   0.68697989   -4.7803756    1.8513769   -1.8987865 -0.054230747 
  199000    0.6970425   -4.7620274    1.8510472   -1.8656778  0.010208761 
  199500   0.70236914   -4.7838679    1.8484747   -1.8821029 0.0039164968 
  200000   0.69419296   -4.7538945    1.8511142   -1.8617512  0.025663059 
  200500   0.69096879   -4.7684591    1.8513184   -1.8809466  -0.02868902 
  201000   0.71167188   -4.7488925    1.8488511   -1.8328005  0.077603463 
  201500   0.68958289   -4.7514496    1.8505601   -1.8667737  0.047195012 
  202000   0.70612683   -4.7592819    1.8517865     -1.84857 -0.00047574083 
  202500    0.7083896   -4.7649194    1.8498231   -1.8527776  0.028417022 
  203000   0.70410401   -4.7496842    1.8530799   -1.8407123  0.021140109 
  203500   0.68853612   -4.7415052     1.851071   -1.8578883 -0.019098991 
  204000   0.69268966   -4.7303485    1.8487107   -1.8428631 -0.026918942 
  204500   0.70159981   -4.7174634    1.8515144   -1.8138124  0.060929761 
  205000   0.70186264   -4.7243896    1.8510701   -1.8207888  0.041235339 
  205500   0.70898316   -4.7265196    1.8513887    -1.811922  0.031873817 
  206000   0.69794171   -4.7233136    1.8502965   -1.8263663 -0.0014050681 
  206500    0.6915148   -4.7429127    1.8565084   -1.8493914 -0.047024772 
  207000     0.696138   -4.7486583    1.8580816   -1.8466308   -0.0962891 
  207500   0.70438734   -4.7377918    1.8529803   -1.8284946 -0.015032645 
  208000   0.71354466   -4.7534831      1.85464   -1.8287937 -0.034264004 
  208500   0.70655418   -4.7306869    1.8526337   -1.8184869    0.1259358 
  209000   0.70474144    -4.770653    1.8509951   -1.8628101 -0.058708321 
  209500   0.70024887   -4.7538759    1.8555468   -1.8482183 -0.017436198 
  210000   0.69438321   -4.7429509    1.8495478   -1.8520887   0.05738982 
  210500   0.69270326   -4.7442007    1.8522355   -1.8531701  0.017805001 
  211000    0.6890888   -4.7535417    1.8505104   -1.8696565  0.056945035 
  211500   0.71421437   -4.7572657    1.8499346   -1.8362774  0.034178677 
  212000   0.69531304   -4.7204665    1.8534914   -1.8242662  0.062642314 
  212500   0.68691854   -4.7370065    1.8471709   -1.8597154 -0.020607983 
  213000   0.69836275   -4.7579216     1.853095   -1.8575444  -0.13322359 
  213500   0.70327367    -4.707254    1.8522866   -1.8003207 0.0018616028 
  214000   0.71057843   -4.6925167    1.8488666   -1.7780489  0.031818237 
  214500   0.70263075   -4.6907919    1.8520644   -1.7850449 -0.059227482 
  215000    0.7085671   -4.7000006    1.8511057     -1.78631 -0.093649535 
  215500   0.70911492   -4.6848502    1.8479904   -1.7734533 -0.016701962 
  216000   0.70646136   -4.6946511    1.8488842   -1.7863397 -0.062323279 
  216500   0.70234779    -4.681614    1.8501564   -1.7781993 -0.034571096 
  217000   0.71312289    -4.684451    1.8485893   -1.7664448 -0.038838681 
  217500   0.69732063   -4.7007485    1.8466486   -1.8083804 -0.0026468136 
  218000   0.70107123   -4.7245505    1.8451679   -1.8280387 -0.063354602 
  218500   0.68735214   -4.7238508    1.8513089   -1.8417714  -0.07768943 
  219000   0.69679844    -4.723471    1.8489713   -1.8295634  0.011061456 
  219500   0.70067314   -4.7236326    1.8475201   -1.8253655  0.041181437 
  220000   0.70985946   -4.7471733    1.8486173   -1.8340331  0.021238388 
  220500   0.71436936   -4.7514919    1.8490731   -1.8311327  0.070989436 
  221000   0.70612432   -4.7477423     1.848929   -1.8398917  0.097239588 
  221500   0.68587461   -4.7739572    1.8488421   -1.8965604  -0.02298095 
  222000   0.70050826   -4.7530159    1.8520604   -1.8504557   0.12612531 
  222500   0.69137624   -4.7677675    1.8501888   -1.8807736  0.079152777 
  223000   0.69202059    -4.772619    1.8528759   -1.8819717 0.0030244304 
  223500   0.70299061   -4.7567816    1.8515067   -1.8510526 0.0055559438 
  224000   0.70887905    -4.751601    1.8509338   -1.8376145 0.00064972868 
  224500    0.6968679   -4.7484025     1.851679    -1.851683  0.027190365 
  225000   0.69937632   -4.7610702    1.8507502   -1.8615178 -0.081366493 
  225500   0.69165961   -4.7455474    1.8517527   -1.8565646  -0.03509015 
  226000   0.68978522   -4.7424385    1.8534527   -1.8545667  0.047568293 
  226500   0.70995562   -4.7500161    1.8506164   -1.8347325 -0.053969506 
  227000   0.69294806   -4.7350524    1.8529701     -1.84292 -0.075154895 
  227500   0.68868874   -4.7329079    1.8514641    -1.848669 -0.050959943 
  228000   0.68369635   -4.7398606     1.853453   -1.8611194  -0.05839805 
  228500   0.67766199   -4.7495867    1.8523968    -1.880951 -0.027708501 
  229000   0.69162939   -4.7537755    1.8504678    -1.866123  -0.10902385 
  229500   0.69874328   -4.7382387    1.8515741   -1.8388117 0.0098780904 
  230000    0.7109778   -4.7601575    1.8489314    -1.845026 -0.053726596 
  230500   0.70270729   -4.7317689    1.8484387   -1.8295329  0.047487204 
  231000   0.68662434   -4.7892739     1.852484   -1.9071109  -0.16282088 
  231500   0.68683833   -4.7787947    1.8506761   -1.8981187 -0.051650736 
  232000   0.70451854   -4.7807163    1.8525615   -1.8716413 -0.0046357117 
  232500   0.71104602   -4.7664411     1.852351   -1.8477877  0.045004567 
  233000   0.70312782   -4.7907591    1.8523191    -1.884012 -0.024028723 
  233500   0.69593926   -4.7787972    1.8501519   -1.8849973  0.015652859 
  234000   0.68688759   -4.7834986    1.8480725   -1.9053524   0.02919851 
  234500   0.69695594   -4.7782718    1.8487745   -1.8843248  0.013990668 
  235000   0.69979153   -4.7809724    1.8468328   -1.8847148  0.021551164 
  235500    0.6860543   -4.7737355    1.8483364   -1.8965749  0.011683064 
  236000   0.69400469   -4.7908742    1.8500004   -1.9001271 -0.014625032 
  236500   0.71838304   -4.7915188      1.85361   -1.8606036 -0.020373991 
  237000   0.70128095   -4.7619347     1.855183   -1.8550932 -0.027533732 
  237500   0.69558712   -4.7553195    1.8521173   -1.8600824 -0.016153364 
  238000   0.70226232   -4.7452833    1.8526113   -1.8395419 -0.022673012 
  238500   0.70569828    -4.725554     1.850651   -1.8166201 -0.049380177 
  239000   0.69442531   -4.7658938    1.8496465   -1.8748697 -0.049263709 
  239500   0.69487241   -4.7515221    1.8540902   -1.8553839 -0.069036413 
  240000   0.69070416   -4.7299456    1.8472773    -1.846871  0.044503014 
  240500   0.69669242   -4.7347026    1.8521556   -1.8377696 -0.0024471435 
  241000   0.69017917     -4.73973    1.8498436   -1.8548764  -0.02702101 
  241500   0.70106388   -4.7311421    1.8511332    -1.828676 0.0072710061 
  242000   0.69691842   -4.7371751      1.84894   -1.8431188  -0.10378528 
  242500   0.69281837   -4.7168498    1.8513619   -1.8265201 -0.0079723948 
  243000   0.70648856   -4.7385363    1.8504984     -1.82857  -0.14976187 
  243500   0.70105961   -4.7393612    1.8486152   -1.8394195 -0.017701829 
  244000   0.69940159   -4.7483822    1.8483578   -1.8511843 -0.049982781 
  244500   0.70279341   -4.7448937    1.8489605   -1.8420066 -0.0011746123 
  245000   0.70472114   -4.7517352    1.8512955   -1.8436222  0.013071278 
  245500    0.6988752   -4.7456354    1.8510994   -1.8464852  0.014011656 
  246000   0.69913557   -4.7455209    1.8508056   -1.8462741  0.053865377 
  246500   0.70121556   -4.7446338    1.8531701   -1.8399033  0.050506842 
  247000     0.701637   -4.7583384    1.8500757   -1.8560703 -0.051598622 
  247500   0.68508498    -4.759824    1.8506755    -1.881778 -0.078733633 
  248000   0.70297268   -4.7685884    1.8486322   -1.8657608 -0.014915494 
  248500   0.70307373   -4.7776092    1.8550626   -1.8681997  -0.01432179 
  249000   0.69359702   -4.7502989    1.8493493   -1.8608142 0.0097656904 
  249500    0.6952738   -4.7612149    1.8548039    -1.863761    0.0993548 
  250000   0.70955652    -4.781884    1.8532069   -1.8646084 0.0024116877 
  250500   0.69739319   -4.7704775    1.8545729   -1.8700764 -0.035260813 
  251000   0.69198434   -4.8080555    1.8510112   -1.9193273 -0.043428299 
  251500    0.7022999   -4.8135977    1.8516768   -1.9087344  -0.02156784 
  252000   0.69049864   -4.7795065    1.8520218   -1.8919957   0.05736794 
  252500   0.70658373    -4.789541      1.85376   -1.8761703 -0.0061163465 
  253000   0.70993324   -4.7924292    1.8527566    -1.875039 -0.0021011473 
  253500   0.70560231   -4.7535986    1.8520677    -1.843392   0.14887169 
  254000   0.68490745   -4.7941952    1.8527963   -1.9142946 -0.077421067 
  254500   0.69796622   -4.7923336    1.8510875   -1.8945584 -0.060006866 
  255000   0.70954726   -4.7637659    1.8535275   -1.8461836  0.012276384 
  255500   0.70393487   -4.7460789    1.8504348   -1.8400058  0.026852099 
  256000   0.69978272   -4.7414639      1.85148   -1.8405723  0.010146818 
  256500   0.68791963   -4.7617822    1.8499711   -1.8801895  -0.13455833 
  257000   0.69549083   -4.7260669    1.8508131   -1.8322784  0.035368289 
  257500    0.7111883   -4.7511522    1.8488645    -1.835772  -0.13801566 
  258000   0.71637661   -4.7354127    1.8489349   -1.8121815  0.014711892 
  258500   0.71277017   -4.7278869    1.8531961   -1.8058028  0.010196273 
  259000   0.70644484   -4.7280812    1.8509273   -1.8177516  -0.11365875 
  259500   0.71080069   -4.7251426    1.8483904   -1.8108177  -0.02537883 
  260000    0.7083952   -4.7101814    1.8522652    -1.795589 -0.022992486 
  260500    0.7120662   -4.7334271    1.8512247   -1.8143702 -0.046905722 
  261000   0.70360022   -4.7383551    1.8517179   -1.8315007 -0.058479661 
  261500   0.70171171   -4.7445509    1.8516676   -1.8405788  0.034808338 
  262000   0.69700324   -4.7532005    1.8501269   -1.8578302  0.020745164 
  262500   0.68885399   -4.7577946    1.8511273   -1.8736447 0.0020944131 
  263000    0.6888309   -4.7726233    1.8480463   -1.8915889  0.017290847 
  263500   0.69545528   -4.7832636    1.8525705    -1.887771  0.047231018 
  264000   0.70382377   -4.7931582    1.8548379   -1.8828485 0.0015882716 
  264500   0.69621403   -4.8126945    1.8500092   -1.9186253 -0.079780271 
  265000   0.69957304   -4.8050074     1.851275   -1.9046352  0.024840327 
  265500   0.71871617    -4.807695    1.8508189   -1.8790714 0.0098301798 
  266000    0.6929874   -4.8069033    1.8505518   -1.9171302  0.073997165 
  266500    0.7252171   -4.8067089    1.8520773   -1.8670779   0.11240537 
  267000   0.69392666   -4.8171672     1.847731   -1.9288064 -0.028646503 
  267500   0.68622086   -4.8008025    1.8508333   -1.9208953  0.057530622 
  268000    0.6897941   -4.8009728    1.8494746   -1.9170657 -0.054110819 
  268500   0.69769395   -4.7969865     1.846698   -1.9040092  -0.01645059 
  269000   0.68818441   -4.7708413    1.8560964   -1.8827264  0.056741634 
  269500   0.69454851   -4.7716024    1.8527577   -1.8772824 -0.020282568 
  270000   0.70374308     -4.77757    1.8504645   -1.8717548 -0.015077722 
  270500   0.69089702   -4.7675124    1.8521049   -1.8793211 -0.0081608024 
  271000   0.69637288   -4.7715694    1.8497566   -1.8775146  0.011783774 
  271500   0.69612885    -4.776714    1.8499451   -1.8828367    0.0215541 
  272000    0.6880404   -4.7823498    1.8546048   -1.8959424 -0.060767088 
  272500   0.70020198   -4.8014761    1.8526578   -1.8987779  -0.12105311 
  273000   0.71213743   -4.7698231    1.8541658   -1.8477182 -0.044777935 
  273500   0.71609523   -4.7602496     1.853205   -1.8331703   0.01894845 
  274000    0.7019867    -4.782506    1.8531321   -1.8766571  0.010324584 
  274500   0.69724781   -4.7998203    1.8499448   -1.9042652 -0.038591258 
  275000   0.70354178   -4.7970593    1.8477142   -1.8942963 -0.010211238 
  275500   0.69741583   -4.7890685    1.8487496   -1.8944567  0.048251683 
  276000   0.69864363   -4.7831692     1.850571   -1.8848948  0.019324272 
  276500   0.69135438   -4.7837125    1.8498487   -1.8970915 -0.0071319906 
  277000   0.68808971   -4.7974361     1.850148   -1.9154116  -0.10783942 
  277500   0.69635568   -4.7828687    1.8488514   -1.8897449 -0.019569844 
  278000   0.69759489    -4.767237    1.8507185   -1.8703878  0.057344307 
  278500   0.69968356   -4.7914886     1.850402   -1.8918236  0.031389847 
  279000   0.71194557   -4.7760111    1.8511532   -1.8572065 -0.011441887 
  279500   0.69485654   -4.7947203    1.8503086   -1.9023875 -0.048184173 
  280000   0.69408903   -4.7708146     1.853634   -1.8763073 -0.071029828 
  280500   0.71632361   -4.7498885    1.8531383   -1.8225334  0.042702133 
  281000   0.70729157   -4.7684332    1.8539484   -1.8538127 -0.051256939 
  281500    0.7095508   -4.7752781    1.8517111   -1.8595069 0.0039463006 
  282000   0.69847566   -4.7731211    1.8506119   -1.8750576 -0.042830113 
  282500   0.68658907   -4.7577661    1.8546248   -1.8735152 -0.00057935024 
  283000   0.68976382   -4.7724859    1.8541163   -1.8839825  -0.12804372 
  283500   0.69932166   -4.7602659    1.8531166    -1.858429 -0.0023546622 
  284000   0.70281734    -4.753903    1.8513419   -1.8485986  0.015286671 
  284500   0.69581698     -4.75005     1.853546   -1.8530395 -0.052641799 
  285000   0.69951547    -4.753923     1.853072   -1.8518402  0.010925745 
  285500   0.70706061   -4.7230714    1.8500946   -1.8126511  0.030817024 
  286000   0.70152055   -4.7312487    1.8497589    -1.829472 -0.001469627 
  286500   0.70153003   -4.7254403    1.8526251   -1.8207833  0.024277871 
  287000   0.70389259      -4.7284    1.8537561   -1.8190689 -0.049864415 
  287500   0.69731372   -4.7572652     1.848731   -1.8628252 -0.059109794 
  288000   0.70208598   -4.7552957    1.8490627   -1.8533673 -0.010549641 
  288500   0.69696245   -4.7333657    1.8509935   -1.8371898 -0.0093003041 
  289000   0.70735324   -4.7031363    1.8529417     -1.78943  0.052177246 
  289500   0.70352118   -4.7257825    1.8491108   -1.8216538 -0.053030586 
  290000    0.7133716   -4.7517114    1.8523796   -1.8295418 -0.091950468 
  290500   0.70471541   -4.7429849    1.8490099   -1.8371661 -0.024432975 
  291000   0.71469073    -4.758097    1.8494779    -1.836851 0.0067723939 
  291500   0.69105101   -4.7362779    1.8485867   -1.8513738 -0.028013524 
  292000   0.69082546   -4.7437193    1.8534612   -1.8542789  -0.11422885 
  292500   0.68294139   -4.7186324      1.85021   -1.8442664 -0.0053164867 
  293000   0.70382415   -4.7396785    1.8498306   -1.8343756 -0.038313564 
  293500   0.71026168   -4.7316618    1.8491946    -1.817341  0.011414866 
  294000   0.69700732   -4.7462424    1.8515505   -1.8494423 -0.032314908 
  294500   0.71180352   -4.7376517    1.8505493   -1.8196641 -0.011566762 
  295000   0.70070054   -4.7359997    1.8497394   -1.8354723 -0.013134758 
  295500   0.69677999   -4.7224783    1.8522365   -1.8253331  0.011856743 
  296000    0.6985411   -4.7255564    1.8510772   -1.8269296 -0.032756742 
  296500   0.68960377   -4.7337483    1.8508322    -1.848769 -0.025930323 
  297000   0.70872731   -4.7354791    1.8514936   -1.8211604  0.033561468 
  297500   0.68743982   -4.7478075    1.8506142   -1.8662914 -0.014333165 
  298000   0.68812915   -4.7581364    1.8560485   -1.8701522 -0.062303212 
  298500   0.68985861   -4.7489262    1.8503759    -1.864021  0.021014342 
  299000   0.69964907   -4.7229815    1.8571079   -1.8166623  0.095630054 
  299500   0.70199068   -4.7424652    1.8521532   -1.8375893 -0.056919637 
  300000   0.69758057   -4.7250915    1.8514288   -1.8275534  0.011281172 
Loop time of 1017.91 on 1 procs for 300000 steps with 4000 atoms

Performance: 25463.906 tau/day, 294.721 timesteps/s
99.7% CPU use with 1 MPI tasks x no OpenMP threads

MPI task timing breakdown:
Section |  min time  |  avg time  |  max time  |%varavg| %total
---------------------------------------------------------------
Pair    | 844.74     | 844.74     | 844.74     |   0.0 | 82.99
Bond    | 2.9015     | 2.9015     | 2.9015     |   0.0 |  0.29
Neigh   | 127.41     | 127.41     | 127.41     |   0.0 | 12.52
Comm    | 11.203     | 11.203     | 11.203     |   0.0 |  1.10
Output  | 9.8993     | 9.8993     | 9.8993     |   0.0 |  0.97
Modify  | 18.98      | 18.98      | 18.98      |   0.0 |  1.86
Other   |            | 2.779      |            |       |  0.27

Nlocal:        4000.00 ave        4000 max        4000 min
Histogram: 1 0 0 0 0 0 0 0 0 0
Nghost:        6280.00 ave        6280 max        6280 min
Histogram: 1 0 0 0 0 0 0 0 0 0
Neighs:        196078.0 ave      196078 max      196078 min
Histogram: 1 0 0 0 0 0 0 0 0 0

Total # of neighbors = 196078
Ave neighs/atom = 49.019500
Ave special neighs/atom = 0.17200000
Neighbor list builds = 15000
Dangerous builds not checked


Total wall time: 0:16:57
